SAT
1 -2 -3 -37 4 -5 -6 -31 7 -8 -9 -28 10 -11 -12 -70 13 -14 -15 -73 16 -17 -18 -55 19 -20 -21 -115 22 -23 -24 -34 25 -26 -27 -76 29 -30 32 -33 35 -36 38 -39 40 -41 -42 -85 43 -44 -45 -109 46 -47 -48 -88 49 -50 -51 -100 52 -53 -54 -61 56 -57 58 -59 -60 -118 62 -63 64 -65 -66 -67 68 -69 71 -72 74 -75 77 -78 79 -80 -81 -103 82 -83 -84 -91 86 -87 89 -90 92 -93 94 -95 -96 -106 97 -98 -99 -112 101 -102 104 -105 107 -108 110 -111 113 -114 116 -117 119 -120 0